0 82 34 127 118 46 110 127 52 44
82 0 76 83 99 89 106 83 84 33
34 76 0 127 74 44 56 106 94 86
127 83 127 0 37 51 118 106 124 99
118 99 74 37 0 91 37 132 49 37
46 89 44 51 91 0 112 131 66 85
110 106 56 118 37 112 0 64 121 71
127 83 106 106 132 131 64 0 43 107
52 84 94 124 49 66 121 43 0 89
44 33 86 99 37 85 71 107 89 0